
 102   30
  10   10   10   10   10   10   10   10   10   10   10   10   10   10   10   10   10   10   10   10   10   10   10   10   10   10   10   10   10   10

   0   0   0   0   0   0   0   0   0   0   0   0   0   0   0   0   0   0   0   0   0   0   0   0   0   0   0   0   0   0   0  25 2 3 4 5 6 7 8 9 10 11 12 13 14 16 17 18 19 20 21 25 26 27 35 36 60 
   8   0   0   0   0   0   0   0   0   0   0   0   0   0   0   0   1   0   0   0   0   1   0   0   0   0   0   0   0   0   0  20 101 100 99 69 64 63 58 57 55 54 51 49 47 44 42 41 38 29 28 22 
   7   0   0   0   0   0   0   0   0   0   0   1   3   0   0   1   9   0   0   0   0   4   0   0   0   0   0   0   0   0   0  12 100 72 71 63 56 53 52 50 49 33 32 15 
   1   0   0   0   6   0   0   0   0   0   0   0   0   0   1   0   0   0   2   0   0   8   0   0   0   0   1   0   0   0   0  20 101 100 99 98 72 70 69 68 64 63 59 53 51 49 46 44 43 41 34 29 
  10   0   0   3   0   0   0   0   0   0   0   0   8   0   4   9   0   3   0   0   0   0   0   0   0   0   8   0   0   0   0   8 100 72 71 63 44 28 24 15 
   9   0   0   0   0   0   2   0   1   0   0   0   3   0   0   0   0   0   0   1   0   0   0   0   0   0   0   0   0   0   0  20 101 100 97 94 71 70 69 64 57 56 55 49 48 47 46 45 44 41 38 30 
   8   0   2   4   7   0   0   0   0   0   0   0   7   1   0   0   0   0   0   0   0   0   0   0   0   1   0   1   0   0   0  15 100 99 69 65 59 58 55 53 49 48 46 41 39 31 23 
   7   0   0   0   0   0   0   0   0   0   0   0   0   0   0   0   0   0   0   0   0   0   0   0   0   0   0   0   0   0   0  18 100 99 98 89 70 69 65 59 58 55 52 50 49 48 47 42 40 38 
   5   0   0   7   0   0   5   0   0   0   0   0   0   0   0   9   0   0   0   0   0  10   0   0   0   0   0  10   2   0   0  16 96 95 90 71 69 64 63 59 55 53 51 50 49 48 43 33 
   8   0   0   0   4   0   0   0   0   0   0   0   0   0   7   0   0   0   0   0   0   0   0   0   0   0   0   0   0   0   0  12 96 72 70 69 66 59 58 56 49 47 45 28 
   2   0   0   5   8   1   0   1   0   1   0   0   0   4   7   0   6   0   0   5   0   0   0   0   0   0   0   0   0   0   0  20 101 100 96 95 93 92 90 71 70 67 66 65 64 63 59 58 57 49 45 37 
   3   0   0   0   0   0   0   0   0   0   0   0   0   0   0   0   5   0   4   0   0   0   0   0   0   0   0   0   0   0   2  21 101 100 99 97 96 94 92 86 84 83 72 71 69 66 63 61 56 55 54 50 49 
   2   0   0   0   0   0   0   4   0   0   0   0   0   0   0   0   0   0   0   0   0   0   0   0   0   0   0   0   0   0   0  18 99 95 93 84 72 71 70 69 67 66 63 59 58 55 54 53 50 48 
   7   0   9   0   6   0   0   0   0   0   3   0   0   0   0   0   0   0   0   0   0   0   0   0   0   0   0   0   0   0   0  17 101 100 99 97 95 94 89 70 69 66 63 55 53 50 49 48 41 
   6   0   0   0   3  10   0   0   0   0   0   0   0   0   0   0   0   0   0   0   0   0   0   0   0   0   0   0   0   0   4  15 101 99 98 95 93 92 89 69 68 64 59 55 43 42 41 
   1   0   0   0   0   0   0   0   0   0   0   0   0   0   0   0   0   0   0   0   1   0   0   0   0   0   0   0   0   0   0  13 101 100 99 98 95 89 67 55 53 49 47 40 29 
   1   0   6   0   0   0   0   0   0   0   7   3   0   0   0   5   0   0   0   0   0   0   0   0   0   8   0   0   0   0   0  11 98 93 89 69 66 64 63 58 49 41 28 
   9   0   0   0   0   0   0   0   0   0   0   0   0   0   0   0   0   0   0   0   0   3   0   0   1   0   0   0   0   0   0  11 99 98 97 94 89 72 70 69 59 51 29 
   7   0   0   0   0   0   0   0   0   0   0   0   4   0   0   0   0   3   0   0   0   0   0   0   0   0   0   0   0   0  10  18 100 96 95 93 91 90 89 88 68 67 65 64 62 59 55 52 48 47 
   8   1   0   0   0   0   4   0   0   0   0   0   0   5   0   0   0   0   0   0   0   8   0   0   0   0   0   0   0   0   0  16 97 96 94 93 89 83 70 69 68 65 64 63 62 48 47 40 
   3   7   0   0   0   7   5   6   0   0   0   0   0   8   0   0   0   0   0   0   0   0   0   0   0   0   0   0   0   0   0  15 99 97 96 94 93 91 83 69 68 65 64 63 62 54 47 
   7   8   0  10   0   0   0   0   0   0   0   0   0   0   0   0   0   0   7   0   0   0   0   2   3   0   0   0   0   0   0  18 98 97 96 95 94 93 91 90 89 88 85 84 67 66 62 61 59 48 
   2   0   0   0   0   0   0   0   0   0  10   0   0   0   0   0   0   0   0   0   0   0   1   6   0   0   0   0   0   0   0  17 101 98 96 95 94 92 87 86 84 83 82 80 70 64 63 62 50 
   1   0   0   0   0   0   0   0   0   0   0   0   0   0   0   3   0   0   0   0   0   0   0   0   0   0   0   0   8   0   0  15 101 99 98 95 94 89 87 86 83 82 78 70 68 49 41 
   7   0   0   0   0   0   0   0   0   0   0   0   0   0   0   0   0   0   2   0   0   0   0   0   0   0   0   0   0   4   8  17 95 94 93 92 91 90 87 83 82 81 78 77 70 68 66 63 47 
   4   0   0   0   0   0   0   0   0   0   4   0   0   0   0   9   0   0   9   0   0   0   0   0   7   8   4   0   0   0   0  20 101 100 99 98 96 92 89 87 86 85 84 83 82 81 72 68 66 62 61 57 
   3   0   0   0   0   0   0   0   3   0   0   0   0   0   0   0   0   0   0   0   0   0   0   0   0   0   0   0   0   0   0  14 95 91 89 88 87 84 83 81 76 74 72 71 68 42 
  10   0   0   9   0   7   0   0   0   0   0   0   0   0   0   0   0   0   0   0   0   0   0   0   4   0   0   0   0   0   0  13 97 95 94 91 90 85 84 80 68 67 61 53 48 
   1   0   0   0   0   9   5   0   0   0   2   0   0   0   0   0   0   0   0   7   0   0   0   0   0   0   0   0   0   0   0  14 96 93 91 88 85 84 83 80 73 66 65 62 61 48 
   6   0   0   0   0   0   0   0   9   0   0   0   0   8   0   0   0   0   0   0   0   0   0   2   0   0   0   5   0   3   0  17 98 93 92 91 90 89 87 86 85 84 77 68 67 66 65 63 61 
   5   0   0   3   0   0   0   0   0   0   0   0   0   4   0   0   0   0   0   0   0   3   0   0   0   0   0   0   0   0   0  12 97 96 95 93 89 87 85 80 78 68 61 44 
   9   0   0   0   0   0   9   7   0   0   0   0   5   0   0   0   0   0   6   7   0  10   0   0   0   0  10   0   4   0   0  15 96 93 92 86 85 83 82 81 80 77 74 67 66 62 54 
   5   0   0   0   0   0   0  10   0   0   0   0   0   0   0   3   0   0   0   7   0   0   5   0   0   4   0   0   0   0   0  11 97 88 87 83 82 81 73 66 62 58 47 
   7   0   0   0   0   0   0   0  10   0   0   0   0   0   0   0   0   0   0   0   4   0  10   0   0   0   0   0   0   0   0  14 97 93 86 85 83 82 81 80 77 74 67 66 62 54 
   6   0   0   0   7   8   0   0   0   0   0   0   8   0   0   0   0   0   0   0   0   0   0   8   0   0   0   0   0   0   0  13 100 91 88 85 84 83 81 75 73 70 65 61 58 
  10   0   0   6   0   0   0   0   0   0   0   0   0   0   0   0   0   0   0   0   0   0   0   0   0   0   6   6   4   5   0  11 97 95 89 83 82 81 78 77 73 69 47 
   2   0   6   0   5   0   0   0   0   0   0   0   0   0   0   4   0   0   0   0   0   0   0   0   0   0   0   0   0   0   6  13 87 86 85 84 83 82 81 80 77 74 73 62 61 
   2   0   0   0   3   0   0   5   0   0   0   8   0   0   5   0   0   4   0   0   0   0   0   0   0   0   0   0   3   0   5   8 95 92 88 80 77 73 61 53 
   8   0   0   0   0   0   0   0   0   0   7   0   0   0   0   0   7   8   0   0   0   0   0   0   0   0   7   0   5   0   0  12 91 87 86 85 84 83 82 77 75 74 73 61 
  10   0   0   0   0   7   5   0   0   0   0   0   0   0   0   0   0   0   0   0   0   0   0   8   0   0   0   0   0   0   0  11 90 88 84 81 80 78 77 76 74 71 66 
   9   0   0   2   0   0   0   0   0   0   0   0   0   0   0   0   6   0   0   0   0   0   6   0   0   0   0   0   0   0   0  10 96 91 84 81 80 77 75 74 67 61 
   4   0   0   0   0   0   0   0   0   6   0   0   0   8   0   0   0   0   0   0   0   0   0   0   0   0   0   0   0   0   0   9 97 94 90 86 82 77 67 66 62 
   1   0   0   0   0   0   0  10   0   0   9   0   0   0   9   0   0   0   0   0   0   0   0   0   0   0   0   0   0   0   0   7 88 84 82 74 73 62 58 
   9   0   7   0   7   0   0   0   0   0   0   0   0   0   6   0   0   8  10   0   0   7   0   0   7   0   9   0   0   4   0  10 90 88 84 83 81 79 77 76 74 66 
   2   0   0   0   0   0   0   0   0   0   0   0   0   0   0   0   8   0   0   0   0   0   0   0   0   0   0   5   0   0   0  10 98 89 88 85 84 83 77 76 75 73 
   3   0  10   0   0   0   0   6   0   0   0   0   0   0   2   0   0   0   0   6   0   0   0   0   0   0   6   0   0   0   0   8 95 93 90 89 84 83 79 67 
   4   0   0   0   0   0   0   0   0   0   0   0   0   0   0   0   0   0   0   0   8   0   0   0   7   0   0   0   0   0   0   7 86 85 84 80 75 74 61 
  10   0   0   0   0   0   0   0   0   0   0   5   0   0   0   0   0   6   0   0   0   0   0   0   0   0   0   0   0   0   0   8 92 87 86 82 81 78 77 74 
   1   5   0   0   0   0   0   0   0   0   0   0   0  10   0   0   0   0   0   2   0   0   0   0   0   0   0   0   0   0   0   7 85 79 77 76 75 74 73 
   4   0   0   0   0   0   0   0   0   0   0   8   0   0   0   0   0   0   0   0   0   0   0   0   0   3   0   0   0   0   0   6 91 85 79 76 74 68 
   2   0   0   0   0   6   0   0   0   0   0   0   0   0   0   7   0   6   0   0   9   0   0   0   0   0   0   0   0   0   0   6 93 85 78 75 74 67 
   9   0   9   0   7   0   0   0   0   0   0   0   0   4   0   0   0   7   0   0   8   0   0   0   0   7   0   0   7   0   0   6 92 86 77 74 73 66 
   6   0   0   0   0   0   0   0   0   0   0   0   4   0   7   0   0   0   0   0   0   0   0   0   0   0   0   0   0   0   0   5 83 82 81 74 62 
   5   0   6   0  10   0   0   0   0   0   0   0   0   0   0   0   0   0   0   8   0   0   0   0   0   0   0   0   0   0   0   6 90 89 87 79 76 73 
   4   0   8   0   0   0   0   0   0   0   0   0   0   0   0   0   8   0   0   9   0   0   0   7   0   0   0   0   0   7   0   5 87 80 76 75 74 
   1   0   0   0   0   0   0   0   0   0   0   0   0   5   0   0   0  10   0   0   0   7   0   0  10   0   6   0   0   0   0   5 95 93 82 81 78 
   4   0   0   0   0   0   0   0   0   0   0   0   0   0   0   0   0   0   0   0   0   0   0   0   0   0   0   0   0   0   0   5 78 76 75 74 73 
   5   0   0   0   7   5   0   0   0   0   0   0   0   0   0   0   0   0   0   0   6   0   0  10   0   0   0   0   0   4   0   3 94 80 77 
   9   0   0   0   0   0   0   0   0   0   0   0   0   0   0   0   0   0   0   0   0   0   0   0   0   0   7   0   5   0   0   3 83 80 74 
  10   0   0   0   0   0   0   0   0   0   0   0   0   7   0   0   0   0   0   0   0   0   0   0   0   0   0   0   0   0   0   3 93 88 78 
   8   0   0   0   0   0   0   0   0   0   0  10   0   0   0   0   0   0   0   0   0   0   0   0   0   0   0   8   0   0   0   2 79 76 
   1   0   0   0   0   0   0   0   0   0   0   0   0   0   0   8   0   0   0   0   0   0  10   0   0   0   0   5  10   0   0   2 78 75 
   4   0   0   0   0   4   0   0   0   0   0   6   0   0   0   0   3   6   0   0   0   0   3   0   9   0   0   0   0   0   0   2 88 73 
   1   0   0   0   0   0   0   0   0   5   0   0   0   0   0   0   0   0   0   5   9   0   0   0   0   0   2   0   0   0   0   2 81 77 
   6   0   0   6   0   0   0   0   0   0   0   0   0   6   6   0   0   0   0   0   0   4   0   0   0   0   0   0   0   0   0   2 82 78 
   7   0   0   0   0   0   0   0   0   0   0   0   0   0   0   0   7   0   0   0   0   0   5   0   0   0   0   0   0   0   0   1 75 
  10   0   0   0   0   0   0   0   0   8   5   0   0   0   0   0   0   0   0   0   0   0   7   0   0   0   6   0   0   0   0   1 73 
   9   0   0   0  10   0   8   0   0   0   0   0   0   0   0   0   0   6   0   0   0   0   0   0   0   0   0   0   0   0   8   1 73 
   1   0   7   0   0   0   0   0   0   0   0   0   0   0   0   0   0   6   0   0   0   5   0   0   4   0   5   0   9   0   4   1 74 
   8   0   0   0   4   0   5   0   6   0   0   0   0   0   0   0   0   0   0   0   0   0   0   0   0   6   0   0   0   0   0   1 74 
   1   0   0   0   0   0   5   0   0   0   0   0   0   0  10   0   0   4   0   8   5   0   0   0   0   0   0   0   0   0   0   1 73 
   7   0   5   0   0   5   0   0   0   0   0   0   0   5   7   0   0   0   0   0   0   4   0   0   0   0   8   0   0   0   0   1 80 
   1   0   7   0   0   0   0   0   0   0   0   0   0   9   0   0   0   0   0   0   0   0   0  10   0   0   0   0   0   5   0   1 102
   6   0   0   0   0   0   0   0   0   0   5   0   0   0   6   0   4   0   0   7   0   7   0   0   0   0   0   0   0   5   0   1 102
   7   0   0   8   0   0   0   9   3   0   6   0   0   0   0   0   0   0   0   0   0   0   0   0   0   0   6   0   0   0   0   1 102
   4   0   0   0   0   0   0   0   0   0   0   0   0   0   0   0   0   0   0   4   0   0   0   0   0   9   0   0   0   6   0   1 102
   8   0   1   0   0   0   5   0   0   0   0   0   0   0   0   0   0   0   0   0   0   0   0   0   0   0   0   0   0   0   0   1 102
  10   0   0   0   0   0   0   0   0   0   0   0   8   0   0   0  10   0   0   0   0   0   0   0   0   0   0   0   0   0   0   1 102
   4   0   0   0   5   0   0   0   0   0   0   0   0   0   0   0   0   7   0   0   7   9   0   0   0   9   0   0   0   9   0   1 102
   5   0   3   0   0   0   5   0   6   0   0   7   6   0   0   0   0   0   0   4   0   8   0   0   0   0   0   0   0   0   0   1 102
   2   0   0   7   0   0   0   0   0   4   0   0   0   0   0   0   0   0   0   0   0   6   0   0   0   0   0   0   0  10   0   1 102
   3   0   5   0   0   0   0   0   0   0   0   0  10   0   0   0   0   0   0   4   0   0   0   0   0   0   0   0   0   0   0   1 102
   5   0   3   0   0   0   8   0   0   0   0   3   0   0   0   9   0   6   0   0   0   0   0   6   0   0   0   0   0   0   0   1 102
   4   0   0   0   3   0   0   0   0   0   0   0   0   0   0   7   0   0   0   9   0   0   0   0   0   0   0   0   0   0   0   1 102
   6   8   0   0   0   0   0   0   0   0   4   0   0   0   0   0   6   0   0   0   0   0   0   0   0   0   5   0   0   0   0   1 102
   9   0   0   7   0   0   0   0   0   9   0   0   0   5   0   0   0   0   0   7   0   0   0   0   0   0   0   0   0   0   0   1 102
   3   0   0   0   0   0   0   0   0   0   9   0   0   0   0   0   0   0   0   0   0   0   0   0   0   0   0   0  10   0   0   1 102
   2   0   0   0   0   0   0   3   0   0   0   0   0   0   0   0   0   0   0   0   0   0   0   5   0   0   0   0   0   0   0   1 102
   6   7   0   0   0   0   0   0   9   0  10   0   0   7   0   0   0   0   0   0   0   0   0   0   0   0   7   8   2   0   0   1 102
   8   0   0   0   0   0   0   0   5   0   0   0   0   0   0   0   0   0   0   0   0   0   0   0   0   0   0   5   0   0   0   1 102
   6   0   0   0   0   0   0   0   0   8   3   0   0   0   0   0   4   0   0   0   3   0   0   0   0   0   0   0   0   0   0   1 102
   4   0   0   0   0   4   0   0   0   0   0   0   0   0   0   0   0   0   0   0   0   0   0   0   0   0   0   0   0   6   0   1 102
   6   0   0   0   0   0   0   0   0   0   6   0   0   0   0   0   0   0   0   0   0   0   0   0   8   0   0   6   0   0   0   1 102
   8   0   0   0   0   5   0   0   0   0   0   0   0   0   0   0   0   0   0   0   0   0   0   0   0   0   0   0   0  10   7   1 102
  10   0   0   0   0   6   0   0   0   7   0   9   0   4   0   0   0   0   0   0   0   4   0   0   0   0   0   0   0   0   0   1 102
   4   0   0   0   0   0  10   0   0   0   0   0   6   0   0   4   0   0   5   0   0   0   7   0   0   0   0   0   0   6   0   1 102
   7   0   0   4   0   0   0   0   7   0   0   0   0   0   7   0   0   0   0   0   0   0   0   0   0   0   0   6   0   0   0   1 102
   6   0   0   9   0   0   0   0   0   0   0   0   0   0   0   0   0   0   0   0   0   0   0   0   0   0   5   0   0   0   0   1 102
   9   0   8   0   6   0   0   5   7   0   0   0   0   0   0   0   0   0   0   8   0   0   0   2   0   5   0   0   0   0   0   1 102
   6   6   0   0   0   0   8   0   0   0   0   0   0   0   0   0   0   0   0   0   0   0   0   0   0   0   0   0   0   0   0   1 102
   8   0   0   0   0   0   7   0   0   6   0   0   0   8   0   0   0   0   9   0   0   0   0   0   0   0   0   7   9   0   0   1 102
   0   0   0   0   0   0   0   0   0   0   0   0   0   0   0   0   0   0   0   0   0   0   0   0   0   0   0   0   0   0   0   0 
